Route #1: 25 19 43 14 44 17 8 10
Route #2: 51 23 22 50 38 9 12 5 40 28
Route #3: 18 46 7 15 24 6 53
Route #4: 45 47 39 4 26 21
Route #5: 1 52 16 35 42 37 29 41
Route #6: 32 11 55 20 31 34 54 30 2 33 49
Route #7: 3 13 36 48 27
Cost 747